&GLOBAL
  PROJECT p4-pristine-PBE0-tddft
  RUN_TYPE ENERGY
  PRINT_LEVEL MEDIUM
&END GLOBAL

&FORCE_EVAL
  METHOD Quickstep
  STRESS_TENSOR DIAGONAL_ANALYTICAL

  &PROPERTIES
    &TDDFPT
      NSTATES 10             # Number of excited states
      MAX_ITER 200           # Maximum number of Davidson iterations
      CONVERGENCE [eV] 1.0e-5 # Convergence on energy change

      &MGRID
        CUTOFF 200  # Separate cutoff for TDDFPT calc
      &END MGRID

      &PRINT
        &NTO_ANALYSIS
          FILENAME ntos       # Output file prefix for NTOs
          THRESHOLD 0.99      # Fraction of transition density captured
          CUBE_FILES          # Enable the generation of cube files
          STRIDE 2 2 2        # Resolution for cube files
        &END NTO_ANALYSIS
        &MOS_MOLDEN
          FILENAME pristine_pbe0.molden
        &END MOS_MOLDEN
      &END PRINT

    &END TDDFPT
  &END PROPERTIES

  &DFT
    BASIS_SET_FILE_NAME BASIS_MOLOPT
    POTENTIAL_FILE_NAME POTENTIAL
    BASIS_SET_FILE_NAME BASIS_ADMM_MOLOPT
    BASIS_SET_FILE_NAME BASIS_ADMM
    WFN_RESTART_FILE_NAME ./test-RESTART.wfn

    &POISSON
      PERIODIC XYZ
    &END POISSON

    &SCF
      MAX_SCF 200
      EPS_SCF 1.0e-8
      SCF_GUESS RESTART
      &MIXING
        METHOD PULAY_MIXING
        ALPHA 0.5
        NBUFFER 5
      &END MIXING
      ADDED_MOS 50
      &DIAGONALIZATION ON
      &END DIAGONALIZATION
    &END SCF

    &QS
      METHOD GPW
      EPS_DEFAULT 1e-10
      EPS_PGF_ORB 1e-30
      EPS_FILTER_MATRIX 0
    &END QS

    &MGRID
      NGRIDS 4
      CUTOFF 600
      REL_CUTOFF 40
    &END MGRID

    &XC
      2ND_DERIV_ANALYTICAL .FALSE.
      &XC_FUNCTIONAL
        &PBE
          SCALE_X 0.75
          SCALE_C 1.0
        &END PBE
      &END XC_FUNCTIONAL
      &HF
        FRACTION 0.25
        &SCREENING
          EPS_SCHWARZ 1e-6
          SCREEN_ON_INITIAL_P TRUE
        &END SCREENING
        &INTERACTION_POTENTIAL
          POTENTIAL_TYPE TRUNCATED
          CUTOFF_RADIUS 5.0
          T_C_G_DATA t_c_g.dat
        &END INTERACTION_POTENTIAL
      &END HF
      &VDW_POTENTIAL
        POTENTIAL_TYPE PAIR_POTENTIAL
        &PAIR_POTENTIAL
          R_CUTOFF 9
          TYPE DFTD3
          PARAMETER_FILE_NAME dftd3.dat
          REFERENCE_FUNCTIONAL PBE0
          LONG_RANGE_CORRECTION T
        &END PAIR_POTENTIAL
      &END VDW_POTENTIAL
    &END XC

    &AUXILIARY_DENSITY_MATRIX_METHOD
      ADMM_PURIFICATION_METHOD NONE
      METHOD BASIS_PROJECTION
      EXCH_CORRECTION_FUNC PBEX
    &END AUXILIARY_DENSITY_MATRIX_METHOD

    &PRINT
      &MO_CUBES
        NHOMO 4
        NLUMO 4
        WRITE_CUBE T
        STRIDE 2 2 2
      &END
    &END PRINT
  &END DFT

  &SUBSYS
    &CELL
      ABC 18.21 13.22 35.00
      PERIODIC XYZ
    &END CELL

    &TOPOLOGY
      COORD_FILE_NAME p4.xyz
      COORD_FILE_FORMAT XYZ
    &END

    &KIND P
      ELEMENT P
      BASIS_SET DZVP-MOLOPT-SR-GTH-q5
      POTENTIAL GTH-PBE-q5
      BASIS_SET AUX_FIT cFIT3
    &END KIND
  &END SUBSYS
&END FORCE_EVAL
