 &FORCE_EVAL
  METHOD  QS
  &DFT
    UKS .FALSE. 
    BASIS_SET_FILE_NAME BASIS_MOLOPT
    POTENTIAL_FILE_NAME POTENTIAL 
    &MGRID
      NGRIDS 16
      CUTOFF 500
      REL_CUTOFF 50
    &END MGRID
    &QS
      METHOD GPW
      EPS_DEFAULT 1.000E-14
    &END QS
    &POISSON
      PERIODIC XYZ 
      PSOLVER PERIODIC
    &END
    &SCF
      &DIAGONALIZATION ON
      &END DIAGONALIZATION
      &MIXING
        ALPHA 0.3
        METHOD BROYDEN_MIXING
        NBROYDEN 8
      &END MIXING
      EPS_SCF 1.0E-6
      SCF_GUESS ATOMIC
      MAX_SCF  50
      ADDED_MOS 50
    &END SCF
    &XC
      &XC_FUNCTIONAL
         &PBE
         &END PBE
      &END XC_FUNCTIONAL
      &VDW_POTENTIAL
         POTENTIAL_TYPE PAIR_POTENTIAL 
         &PAIR_POTENTIAL
            PARAMETER_FILE_NAME dftd3.dat
            TYPE DFTD3
            REFERENCE_FUNCTIONAL PBE
            R_CUTOFF [angstrom] 16
         &END
      &END VDW_POTENTIAL
    &END XC
    &PRINT
      &MULLIKEN OFF
      &END
      &HIRSHFELD OFF
      &END
    &END PRINT
  &END DFT
  &SUBSYS

    &CELL
	  A 	  18.209673   0.00        0.00
	  B  	  0.000      13.224436    0.00
	  C  	  0.000       0.00       35.00
      PERIODIC  XYZ 
	&END CELL
	
    &TOPOLOGY
      COORD_FILE_NAME divac1.xyz 
      COORD_FILE_FORMAT XYZ
      &CENTER_COORDINATES T
      &END
    &END


    &KIND P
      BASIS_SET  DZVP-MOLOPT-GTH
      POTENTIAL  GTH-PBE-q5
	  !&DFT_PLUS_U
      !L  1
      !U_MINUS_J  0.05
      !&END	  
    &END KIND

   &END SUBSYS
&END FORCE_EVAL

&GLOBAL
  PROJECT MD_divac1
  RUN_TYPE MD
  PRINT_LEVEL LOW
&END GLOBAL

&MOTION
  &MD
    ENSEMBLE NVT
    STEPS 3000
    TIMESTEP 1
    TEMPERATURE 300.0
   &THERMOSTAT
     REGION GLOBAL
     TYPE CSVR
	 &CSVR
	   TIMECON 15
	 &END
   &END THERMOSTAT
  &END MD
  !&CONSTRAINT
  !  &FIXED_ATOMS
  !    COMPONENTS_TO_FIX XYZ
  !    LIST 144 145 146 147
  !  &END
  !&END CONSTRAINT   
  &PRINT
   &TRAJECTORY
     &EACH
       MD 1
     &END EACH
   &END TRAJECTORY

   &VELOCITIES ON
   &END VELOCITIES

   &FORCES ON
   &END FORCES   

   &RESTART_HISTORY
     &EACH
       MD 50
     &END EACH
   &END RESTART_HISTORY

   &RESTART
     BACKUP_COPIES 1
     &EACH
       MD 50
     &END EACH
   &END RESTART

  &END PRINT

&END MOTION

